c 218_4_checker_6cl.cnf
c
c field = 218
c formula set type = 4_checker_6cl
c
p cnf 6 10
426 
428 
430 
432 
-424 
-436 
427 
429 
431 
433 
-425 
-437 
428 
430 
432 
436 
-426 
-438 
429 
431 
433 
437 
-427 
-439 
430 
432 
436 
438 
-428 
-440 
431 
433 
437 
439 
-429 
-441 
432 
436 
438 
440 
-430 
-442 
433 
437 
439 
441 
-431 
-443 
436 
438 
440 
442 
-432 
-444 
437 
439 
441 
443 
-433 
-445 
